# less tricky
<number of tasks>
12

<cycle time>
1000

<order strength>
0,5


<task times>
1 77
2 233
3 188
4 85
5 162
6 92
7 180
8 195
9 258
10 139
11 215
12 84

<precedence relations>
1,6
3,7
3,10
3,11
4,6
4,7
5,10
6,8
6,9
6,10
6,11
6,12
7,12

<end>
